RAW/CMTT/fspd-mid/CMT14T.vrp_seed-4.out
826.7733322	4.283	92.82
